(set-logic QF_S)
(declare-const c1 String)
(declare-const c2 String)
(declare-const c3 String)
(declare-const c4 String)
(declare-const c5 String)
(assert (= c1 "a"))
(assert (= c2 "b"))
(assert (= c3 "c"))
(assert (= c4 "d"))
(assert (= c5 "e"))
(check-sat)
(get-model)